Traveling Salesman Problem/TSP_generados/Aleatorio1620390962_11.tsp
NAME: Aleatorio1620390962_11.tsp
COMMENT: Randomly generated scenario
TYPE: TSP
DIMENSION: 11
EDGE_WEIGHT_TYPE: ATT
NODE_COORD_SECTION
1 34.6 0.37
2 17.03 8.45
3 0.74 2.01
4 16.2 23.03
5 33.74 9.71
6 40.26 26.02
7 45.87 13.61
8 21.81 19.56
9 28.45 48.86
10 10.76 44.3
11 22.7 31.8
