Traveling Salesman Problem/TSP_generados/Aleatorio1620390962_11.opt.tour
NAME: Aleatorio1620390962_11.opt.tour
COMMENT: Optimal solution for Aleatorio1620390962_11 (178.03107402023358)
TYPE: TOUR
DIMENSION: 11
TOUR_SECTION
1 5 7 6 9 10 11 4 8 2 3
-1
EOF
